#######################################
### Exact MIP solver for the HHCRSP ###
#######################################
-- Instance file: new-instances/HHCRSP_300_60_93_0.4_R_RC.txt
-- Max threads: 4
-- Time limit: 999999 seconds
-- Use initial solution: No
Trivial flow violations prevented generating 1208834 variables.
Version identifier: 20.1.0.0 | 2020-11-10 | 9bedb6d68
CPXPARAM_Threads                                 4
CPXPARAM_TimeLimit                               999999
Parallel mode: deterministic, using up to 4 threads for concurrent optimization:
 * Starting dual Simplex on 1 thread...
 * Starting Barrier on 3 threads...
Tried aggregator 1 time.
LP Presolve eliminated 49674 rows and 11913 columns.
Reduced LP has 1392014 rows, 1318188 columns, and 33612029 nonzeros.
Presolve time = 37.62 sec. (7273.64 ticks)
Symmetry aggregator did 2291837 additional substitutions.

Iteration log . . .
Iteration:     1   Dual objective     =             0.000000
Iteration:  1388   Dual objective     =           433.666667

Dual crossover.
  Dual:  Fixing 2210 variables.
     2209 DMoves:  Infeasibility  1.45394807e-12  Objective  4.34666667e+02
        0 DMoves:  Infeasibility  8.14681655e-13  Objective  4.34666667e+02
  Dual:  Pushed 50, exchanged 2160.
  Primal:  Fixing 1536 variables.
     1535 PMoves:  Infeasibility  1.11022302e-16  Objective  4.34666667e+02
        0 PMoves:  Infeasibility  1.11022302e-16  Objective  4.34666667e+02
  Primal:  Pushed 1380, exchanged 156.

Dual simplex solved model.


Solution status from MIP model:
-- Processing time: 63.425 sec.
-- Memory used: 1246.25 MB
-- Best bound: inf
-- Obj value: 434.667
-- Gap: inf%
-- Total distance: 1304
-- Total tardiness: 0
-- Largest tardiness: 0
